instances/tuning-use-case-1/oven_scheduling.minizinc_instance_0112-17.51.43.dat
LengthSchedulingHorizon=568;
nAttributes=5;
SetupCosts=[[0, 0, 0, 0, 0], [0, 0, 0, 0, 0], [0, 0, 0, 0, 0], [0, 0, 0, 0, 0], [0, 0, 0, 0, 0], [0, 0, 0, 0, 0]];
SetupTimes=[[0, 0, 0, 0, 0], [0, 0, 0, 0, 0], [0, 0, 0, 0, 0], [0, 0, 0, 0, 0], [0, 0, 0, 0, 0], [0, 0, 0, 0, 0]];
nMachines=5;
MinCap=[0, 0, 0, 0, 0];
MaxCap=[20, 20, 20, 20, 20];

initState=[5, 3, 4, 3, 1];
nShifts=5;
ShiftStartTimes = [[0, 0, 0, 51, 481], [0, 0, 146, 155, 349], [327, 392, 407, 427, 494], [0, 0, 231, 395, 486], [0, 54, 321, 400, 537]];
ShiftEndTimes = [[0, 0, 0, 219, 552], [0, 0, 155, 239, 465], [389, 403, 422, 470, 562], [0, 0, 390, 423, 526], [0, 251, 360, 485, 548]];
nJobs=25;
EligibleMachines = [{3, 4}, {2, 5}, {1, 5}, {1, 4}, {3, 4, 5}, {1}, {4, 5}, {1, 2}, {4, 5}, {2, 4}, {2, 3}, {3, 4}, {1}, {2, 3, 4}, {1, 5}, {5}, {2}, {3, 5}, {2, 4}, {4, 5}, {1, 5}, {3}, {2, 5}, {1, 2, 3}, {1, 2, 3}];
EarliestStart=[7, 6, 4, 11, 8, 8, 10, 2, 3, 6, 5, 11, 9, 1, 12, 3, 5, 11, 5, 9, 3, 0, 8, 1, 5];
LatestEnd=[21, 16, 30, 20, 26, 12, 30, 17, 44, 17, 19, 31, 43, 3, 41, 25, 8, 14, 38, 12, 11, 14, 37, 38, 11];
MinTime=[10, 3, 8, 3, 6, 1, 5, 7, 9, 5, 3, 6, 10, 1, 7, 8, 2, 3, 10, 1, 5, 4, 9, 8, 5];
MaxTime=[10, 10, 10, 10, 10, 10, 10, 10, 10, 10, 10, 10, 10, 10, 10, 10, 10, 10, 10, 10, 10, 10, 10, 10, 10];
JobSize=[3, 3, 7, 9, 11, 3, 7, 8, 10, 4, 3, 12, 8, 4, 20, 15, 6, 20, 6, 15, 3, 3, 3, 3, 20];
Attribute=[5, 4, 1, 2, 5, 1, 5, 4, 4, 1, 1, 2, 3, 3, 3, 2, 5, 4, 2, 5, 2, 3, 4, 3, 1];

upper_bound_integer_objective=15750;
mult_factor_total_runtime=4;
mult_factor_finished_toolate=600;
mult_factor_total_setuptimes=0;
mult_factor_total_setupcosts=6;
running_time_bound=139;
min_duration=1;
max_duration=10;
max_setup_time=0;
max_setup_cost=0;
