instances/tuning-use-case-1/oven_scheduling.minizinc_instance_0112-17.51.43.dzn
l=568;
a=5;
setup_costs=[|0,0,0,0,0,
|0,0,0,0,0,
|0,0,0,0,0,
|0,0,0,0,0,
|0,0,0,0,0,
|0,0,0,0,0|];
setup_times=[|0,0,0,0,0,
|0,0,0,0,0,
|0,0,0,0,0,
|0,0,0,0,0,
|0,0,0,0,0,
|0,0,0,0,0|];
m=5;
min_cap=[0,0,0,0,0];
max_cap=[20,20,20,20,20];

initState=[5,3,4,3,1];
s=5;
m_a_s = [|0,0,0,51,481,
|0,0,146,155,349,
|327,392,407,427,494,
|0,0,231,395,486,
|0,54,321,400,537|];
m_a_e = [|0,0,0,219,552,
|0,0,155,239,465,
|389,403,422,470,562,
|0,0,390,423,526,
|0,251,360,485,548|];
n=25;
eligible_machine = [{3,4},
{5,2},
{1,5},
{1,4},
{3,4,5},
{1},
{5,4},
{1,2},
{4,5},
{4,2},
{3,2},
{4,3},
{1},
{3,2,4},
{1,5},
{5},
{2},
{5,3},
{4,2},
{4,5},
{1,5},
{3},
{5,2},
{1,2,3},
{3,1,2}];
earliest_start=[7,6,4,11,8,8,10,2,3,6,5,11,9,1,12,3,5,11,5,9,3,0,8,1,5];
latest_end=[21,16,30,20,26,12,30,17,44,17,19,31,43,3,41,25,8,14,38,12,11,14,37,38,11];
min_time=[10,3,8,3,6,1,5,7,9,5,3,6,10,1,7,8,2,3,10,1,5,4,9,8,5];
max_time=[10,10,10,10,10,10,10,10,10,10,10,10,10,10,10,10,10,10,10,10,10,10,10,10,10];
size=[3,3,7,9,11,3,7,8,10,4,3,12,8,4,20,15,6,20,6,15,3,3,3,3,20];
attribute=[5,4,1,2,5,1,5,4,4,1,1,2,3,3,3,2,5,4,2,5,2,3,4,3,1];

upper_bound_integer_objective=15750;
mult_factor_total_runtime=4;
mult_factor_finished_toolate=600;
mult_factor_total_setuptimes=0;
mult_factor_total_setupcosts=6;
running_time_bound=139;
min_duration=1;
max_duration=10;
max_setup_time=0;
max_setup_cost=0;
